NAME          
ROWS
 N  OBJ
 L  c1
 L  c2
 L  c3
COLUMNS
    MARKER    'MARKER'                 'INTORG'
    x[1]      c1        131
    x[1]      c2        750
    x[1]      c3        67
    x[1]      OBJ       -200
    x[2]      c1        608
    x[2]      c2        932
    x[2]      c3        350
    x[2]      OBJ       -244
    x[3]      c1        270
    x[3]      c2        77
    x[3]      c3        194
    x[3]      OBJ       -721
    x[4]      c1        178
    x[4]      c2        44
    x[4]      c3        5
    x[4]      OBJ       -262
    x[5]      c1        112
    x[5]      c2        437
    x[5]      c3        342
    x[5]      OBJ       -43
    x[6]      c1        912
    x[6]      c2        598
    x[6]      c3        744
    x[6]      OBJ       -456
    x[7]      c1        654
    x[7]      c2        111
    x[7]      c3        844
    x[7]      OBJ       -887
    x[8]      c1        727
    x[8]      c2        54
    x[8]      c3        650
    x[8]      OBJ       -585
    x[9]      c1        796
    x[9]      c2        688
    x[9]      c3        620
    x[9]      OBJ       -900
    x[10]     c1        152
    x[10]     c2        473
    x[10]     c3        80
    x[10]     OBJ       -692
    x[11]     c1        65
    x[11]     c2        332
    x[11]     c3        847
    x[11]     OBJ       -876
    x[12]     c1        203
    x[12]     c2        889
    x[12]     c3        736
    x[12]     OBJ       -309
    x[13]     c1        163
    x[13]     c2        712
    x[13]     c3        403
    x[13]     OBJ       -399
    x[14]     c1        324
    x[14]     c2        404
    x[14]     c3        279
    x[14]     OBJ       -370
    x[15]     c1        922
    x[15]     c2        911
    x[15]     c3        589
    x[15]     OBJ       -170
    x[16]     c1        19
    x[16]     c2        963
    x[16]     c3        933
    x[16]     OBJ       -302
    x[17]     c1        538
    x[17]     c2        603
    x[17]     c3        436
    x[17]     OBJ       -126
    x[18]     c1        554
    x[18]     c2        764
    x[18]     c3        645
    x[18]     OBJ       -611
    x[19]     c1        105
    x[19]     c2        180
    x[19]     c3        783
    x[19]     OBJ       -21
    x[20]     c1        415
    x[20]     c2        801
    x[20]     c3        645
    x[20]     OBJ       -324
    x[21]     c1        161
    x[21]     c2        185
    x[21]     c3        340
    x[21]     OBJ       -807
    x[22]     c1        323
    x[22]     c2        982
    x[22]     c3        663
    x[22]     OBJ       -426
    x[23]     c1        610
    x[23]     c2        741
    x[23]     c3        892
    x[23]     OBJ       -796
    x[24]     c1        2
    x[24]     c2        397
    x[24]     c3        803
    x[24]     OBJ       -85
    x[25]     c1        523
    x[25]     c2        127
    x[25]     c3        963
    x[25]     OBJ       -56
    x[26]     c1        809
    x[26]     c2        352
    x[26]     c3        291
    x[26]     OBJ       -509
    x[27]     c1        428
    x[27]     c2        801
    x[27]     c3        69
    x[27]     OBJ       -811
    x[28]     c1        903
    x[28]     c2        215
    x[28]     c3        696
    x[28]     OBJ       -835
    x[29]     c1        261
    x[29]     c2        633
    x[29]     c3        81
    x[29]     OBJ       -148
    x[30]     c1        475
    x[30]     c2        589
    x[30]     c3        118
    x[30]     OBJ       -680
    x[31]     c1        820
    x[31]     c2        901
    x[31]     c3        684
    x[31]     OBJ       -379
    x[32]     c1        734
    x[32]     c2        627
    x[32]     c3        124
    x[32]     OBJ       -869
    x[33]     c1        375
    x[33]     c2        573
    x[33]     c3        74
    x[33]     OBJ       -687
    x[34]     c1        995
    x[34]     c2        539
    x[34]     c3        297
    x[34]     OBJ       -886
    x[35]     c1        164
    x[35]     c2        934
    x[35]     c3        553
    x[35]     OBJ       -517
    x[36]     c1        745
    x[36]     c2        701
    x[36]     c3        348
    x[36]     OBJ       -539
    x[37]     c1        926
    x[37]     c2        806
    x[37]     c3        605
    x[37]     OBJ       -827
    x[38]     c1        182
    x[38]     c2        653
    x[38]     c3        671
    x[38]     OBJ       -176
    x[39]     c1        452
    x[39]     c2        726
    x[39]     c3        231
    x[39]     OBJ       -696
    x[40]     c1        525
    x[40]     c2        456
    x[40]     c3        444
    x[40]     OBJ       -744
    x[41]     c1        224
    x[41]     c2        203
    x[41]     c3        83
    x[41]     OBJ       -465
    x[42]     c1        449
    x[42]     c2        933
    x[42]     c3        17
    x[42]     OBJ       -967
    x[43]     c1        209
    x[43]     c2        418
    x[43]     c3        784
    x[43]     OBJ       -562
    x[44]     c1        106
    x[44]     c2        507
    x[44]     c3        135
    x[44]     OBJ       -870
    x[45]     c1        813
    x[45]     c2        647
    x[45]     c3        961
    x[45]     OBJ       -867
RHS
    rhs       c1        10031
    rhs       c2        12684
    rhs       c3        10560
RANGES
BOUNDS
 BV bounds    x[1]
 BV bounds    x[2]
 BV bounds    x[3]
 BV bounds    x[4]
 BV bounds    x[5]
 BV bounds    x[6]
 BV bounds    x[7]
 BV bounds    x[8]
 BV bounds    x[9]
 BV bounds    x[10]
 BV bounds    x[11]
 BV bounds    x[12]
 BV bounds    x[13]
 BV bounds    x[14]
 BV bounds    x[15]
 BV bounds    x[16]
 BV bounds    x[17]
 BV bounds    x[18]
 BV bounds    x[19]
 BV bounds    x[20]
 BV bounds    x[21]
 BV bounds    x[22]
 BV bounds    x[23]
 BV bounds    x[24]
 BV bounds    x[25]
 BV bounds    x[26]
 BV bounds    x[27]
 BV bounds    x[28]
 BV bounds    x[29]
 BV bounds    x[30]
 BV bounds    x[31]
 BV bounds    x[32]
 BV bounds    x[33]
 BV bounds    x[34]
 BV bounds    x[35]
 BV bounds    x[36]
 BV bounds    x[37]
 BV bounds    x[38]
 BV bounds    x[39]
 BV bounds    x[40]
 BV bounds    x[41]
 BV bounds    x[42]
 BV bounds    x[43]
 BV bounds    x[44]
 BV bounds    x[45]
ENDATA
